
Gurobi 8.1.0 (win64, Python) logging started 02/06/19 23:41:21

Academic license - for non-commercial use only

Gurobi 8.1.0 (win64, Python) logging started 02/06/19 23:42:34

Academic license - for non-commercial use only

Gurobi 8.1.0 (win64, Python) logging started 02/07/19 00:12:15

Academic license - for non-commercial use only

Gurobi 8.1.0 (win64, Python) logging started 02/07/19 00:13:12

Academic license - for non-commercial use only

Gurobi 8.1.0 (win64, Python) logging started 02/07/19 00:15:02

Academic license - for non-commercial use only

Gurobi 8.1.0 (win64, Python) logging started 02/07/19 09:20:14

Academic license - for non-commercial use only

Gurobi 8.1.0 (win64, Python) logging started 02/07/19 09:20:57

Academic license - for non-commercial use only

Gurobi 8.1.0 (win64, Python) logging started 02/07/19 09:22:40

Academic license - for non-commercial use only

Gurobi 8.1.0 (win64, Python) logging started 02/07/19 09:24:35

Academic license - for non-commercial use only

Gurobi 8.1.0 (win64, Python) logging started 02/07/19 09:28:22

Academic license - for non-commercial use only

Gurobi 8.1.0 (win64, Python) logging started 02/07/19 09:29:31

Academic license - for non-commercial use only

Gurobi 8.1.0 (win64, Python) logging started 02/07/19 09:58:10

Academic license - for non-commercial use only

Gurobi 8.1.0 (win64, Python) logging started 02/07/19 10:23:02

Academic license - for non-commercial use only

Gurobi 8.1.0 (win64, Python) logging started 02/07/19 10:23:55

Academic license - for non-commercial use only

Gurobi 8.1.0 (win64, Python) logging started 02/07/19 10:27:07

Academic license - for non-commercial use only

Gurobi 8.1.0 (win64, Python) logging started 02/07/19 10:28:18

Academic license - for non-commercial use only

Gurobi 8.1.0 (win64, Python) logging started 02/07/19 10:29:49

Academic license - for non-commercial use only

Gurobi 8.1.0 (win64, Python) logging started 02/07/19 10:31:00

Academic license - for non-commercial use only

Gurobi 8.1.0 (win64, Python) logging started 02/07/19 10:31:51

Academic license - for non-commercial use only

Gurobi 8.1.0 (win64, Python) logging started 02/07/19 10:33:28

Academic license - for non-commercial use only

Gurobi 8.1.0 (win64, Python) logging started 02/07/19 10:35:37

Academic license - for non-commercial use only

Gurobi 8.1.0 (win64, Python) logging started 02/07/19 10:41:58

Academic license - for non-commercial use only

Gurobi 8.1.0 (win64, Python) logging started 02/07/19 10:42:29

Academic license - for non-commercial use only

Gurobi 8.1.0 (win64, Python) logging started 02/07/19 10:43:03

Academic license - for non-commercial use only

Gurobi 8.1.0 (win64, Python) logging started 02/07/19 10:44:22

Academic license - for non-commercial use only

Gurobi 8.1.0 (win64, Python) logging started 02/07/19 10:46:46

Academic license - for non-commercial use only

Gurobi 8.1.0 (win64, Python) logging started 02/07/19 10:47:28

Academic license - for non-commercial use only

Gurobi 8.1.0 (win64, Python) logging started 02/07/19 10:48:50

Academic license - for non-commercial use only

Gurobi 8.1.0 (win64, Python) logging started 02/07/19 10:49:35

Academic license - for non-commercial use only

Gurobi 8.1.0 (win64, Python) logging started 02/07/19 10:50:42

Academic license - for non-commercial use only

Gurobi 8.1.0 (win64, Python) logging started 02/07/19 10:53:42

Academic license - for non-commercial use only

Gurobi 8.1.0 (win64, Python) logging started 02/07/19 10:55:03

Academic license - for non-commercial use only

Gurobi 8.1.0 (win64, Python) logging started 02/07/19 11:01:04

Academic license - for non-commercial use only

Gurobi 8.1.0 (win64, Python) logging started 02/07/19 11:01:29

Academic license - for non-commercial use only

Gurobi 8.1.0 (win64, Python) logging started 02/07/19 11:28:15

Academic license - for non-commercial use only

Gurobi 8.1.0 (win64, Python) logging started 02/07/19 11:31:08

Academic license - for non-commercial use only

Gurobi 8.1.0 (win64, Python) logging started 02/07/19 11:33:16

Academic license - for non-commercial use only

Gurobi 8.1.0 (win64, Python) logging started 02/07/19 11:36:52

Academic license - for non-commercial use only

Gurobi 8.1.0 (win64, Python) logging started 02/07/19 11:43:25

Academic license - for non-commercial use only

Gurobi 8.1.0 (win64, Python) logging started 02/07/19 11:44:59

Academic license - for non-commercial use only

Gurobi 8.1.0 (win64, Python) logging started 02/07/19 11:47:11

Academic license - for non-commercial use only
